6942,23405,2657,12757,21721,21683,25952,17596,1998,24772,9956,10497,21051,2938,12110,6280,15047,8790,8793,6146,17225,20299,19301,14520,7099,17771,14010,18316,9863,16879,16488,17075,2928,4950,19831,15156,20928,13050,6064,25539,6942